qbf_easy_train/easy_1004_SAT.qdimacs
p cnf 21 52
a 20 13 14 0
e 1 2 3 4 5 6 7 8 9 10 11 12 15 16 17 18 19 21 0
3 1 0
3 2 0
-1 -2 -3 0
6 -4 0
6 5 0
4 -5 -6 0
-6 -3 -7 0
6 3 -7 0
-6 3 7 0
6 -3 7 0
-3 7 -8 0
3 -7 -8 0
-3 -7 8 0
3 7 8 0
10 4 0
10 -9 0
-4 9 -10 0
10 9 -11 0
-10 -9 -11 0
10 -9 11 0
-10 9 11 0
-12 -3 0
-12 -3 0
3 12 0
-11 12 -13 0
11 -12 -13 0
-11 -12 13 0
11 12 13 0
-14 -3 -15 0
14 3 -15 0
-14 3 15 0
14 -3 15 0
13 -15 -16 0
-13 15 -16 0
13 15 16 0
-13 -15 16 0
-8 16 -17 0
8 -16 -17 0
-8 -16 17 0
8 16 17 0
-20 -18 0
-20 19 0
18 -19 20 0
21 -17 0
21 20 0
17 -20 -21 0
-10 -2 -18 0
-4 -9 8 13 7 -20 16 0
-19 7 -14 -11 8 17 10 0
3 -17 -8 7 -4 16 13 0
9 3 1 0
21 0
