sat_easy_train/easy_1004_SAT.dimacs
p cnf 117 397
1 2 -3 0
-1 -2 -3 0
1 -2 3 0
-1 2 3 0
3 4 -5 0
-3 -4 -5 0
3 -4 5 0
-3 4 5 0
8 -6 0
8 -7 0
6 7 -8 0
10 8 0
10 -9 0
-8 9 -10 0
-11 -10 0
-11 -6 0
10 6 11 0
12 -13 -14 0
-12 13 -14 0
12 13 14 0
-12 -13 14 0
16 12 0
16 15 0
-12 -15 -16 0
-14 -16 -17 0
14 16 -17 0
-14 16 17 0
14 -16 17 0
18 -11 0
18 -17 0
11 17 -18 0
-5 18 -19 0
5 -18 -19 0
-5 -18 19 0
5 18 19 0
20 3 0
20 -8 0
-3 8 -20 0
21 8 0
21 -20 0
-8 20 -21 0
-23 -21 0
-23 22 0
21 -22 23 0
24 19 0
24 -23 0
-19 23 -24 0
5 16 -25 0
-5 -16 -25 0
5 -16 25 0
-5 16 25 0
-24 25 -26 0
24 -25 -26 0
-24 -25 26 0
24 25 26 0
27 -14 -28 0
-27 14 -28 0
27 14 28 0
-27 -14 28 0
-26 28 -29 0
26 -28 -29 0
-26 -28 29 0
26 28 29 0
-31 -7 0
-31 27 0
7 -27 31 0
30 31 -32 0
-30 -31 -32 0
30 -31 32 0
-30 31 32 0
32 -33 -34 0
-32 33 -34 0
32 33 34 0
-32 -33 34 0
35 -2 0
35 -34 0
2 34 -35 0
-37 31 0
-37 33 0
-31 -33 37 0
38 30 0
38 1 0
-30 -1 -38 0
39 -37 0
39 38 0
37 -38 -39 0
40 -36 0
40 -39 0
36 39 -40 0
35 40 -41 0
-35 -40 -41 0
35 -40 41 0
-35 40 41 0
-42 -29 0
-42 41 0
29 -41 42 0
-21 -22 -43 0
21 22 -43 0
-21 22 43 0
21 -22 43 0
43 7 -44 0
-43 -7 -44 0
43 -7 44 0
-43 7 44 0
45 44 0
45 -1 0
-44 1 -45 0
-12 27 -46 0
12 -27 -46 0
-12 -27 46 0
12 27 46 0
-47 -46 0
-47 -36 0
46 36 47 0
48 9 0
48 47 0
-9 -47 -48 0
-4 27 -49 0
4 -27 -49 0
-4 -27 49 0
4 27 49 0
-50 -6 0
-50 49 0
6 -49 50 0
-51 -10 0
-51 -50 0
10 50 51 0
51 -52 -53 0
-51 52 -53 0
51 52 53 0
-51 -52 53 0
-54 48 0
-54 -53 0
-48 53 54 0
-45 -54 -55 0
45 54 -55 0
-45 54 55 0
45 -54 55 0
-42 55 -56 0
42 -55 -56 0
-42 -55 56 0
42 55 56 0
58 -15 0
58 -57 0
15 57 -58 0
-58 -59 0
58 -59 0
27 59 -60 0
-27 -59 -60 0
27 -59 60 0
-27 59 60 0
32 60 -61 0
-32 -60 -61 0
32 -60 61 0
-32 60 61 0
-62 -10 0
-62 58 0
10 -58 62 0
-63 -61 0
-63 -62 0
61 62 63 0
64 43 0
64 49 0
-43 -49 -64 0
-65 63 0
-65 -64 0
-63 64 65 0
66 -37 0
66 9 0
37 -9 -66 0
32 66 -67 0
-32 -66 -67 0
32 -66 67 0
-32 66 67 0
68 67 0
68 -31 0
-67 31 -68 0
-39 9 -69 0
39 -9 -69 0
-39 -9 69 0
39 9 69 0
-70 68 0
-70 69 0
-68 -69 70 0
-71 -16 0
-71 3 0
16 -3 71 0
71 -34 -72 0
-71 34 -72 0
71 34 72 0
-71 -34 72 0
-73 72 0
-73 50 0
-72 -50 73 0
70 73 -74 0
-70 -73 -74 0
70 -73 74 0
-70 73 74 0
65 74 -75 0
-65 -74 -75 0
65 -74 75 0
-65 74 75 0
-76 66 0
-76 -7 0
-66 7 76 0
-77 -75 0
-77 76 0
75 -76 77 0
-78 56 0
-78 77 0
-56 -77 78 0
-79 58 0
-79 13 0
-58 -13 79 0
-80 79 0
-80 10 0
-79 -10 80 0
-38 47 -81 0
38 -47 -81 0
-38 -47 81 0
38 47 81 0
-57 27 -82 0
57 -27 -82 0
-57 -27 82 0
57 27 82 0
83 81 0
83 82 0
-81 -82 -83 0
-80 83 -84 0
80 -83 -84 0
-80 -83 84 0
80 83 84 0
1 6 -85 0
-1 -6 -85 0
1 -6 85 0
-1 6 85 0
50 -68 -86 0
-50 68 -86 0
50 68 86 0
-50 -68 86 0
-87 -7 0
-87 -46 0
7 46 87 0
-87 17 -88 0
87 -17 -88 0
-87 -17 88 0
87 17 88 0
-89 86 0
-89 -88 0
-86 88 89 0
-90 9 0
-90 -22 0
-9 22 90 0
91 90 0
91 -58 0
-90 58 -91 0
89 -91 -92 0
-89 91 -92 0
89 91 92 0
-89 -91 92 0
-93 5 0
-93 -4 0
-5 4 93 0
-87 93 -94 0
87 -93 -94 0
-87 -93 94 0
87 93 94 0
-21 -51 -95 0
21 51 -95 0
-21 51 95 0
21 -51 95 0
94 95 -96 0
-94 -95 -96 0
94 -95 96 0
-94 95 96 0
92 96 -97 0
-92 -96 -97 0
92 -96 97 0
-92 96 97 0
98 -37 0
98 38 0
37 -38 -98 0
-99 -97 0
-99 -98 0
97 98 99 0
-100 85 0
-100 -99 0
-85 99 100 0
101 84 0
101 -100 0
-84 100 -101 0
102 9 0
102 -27 0
-9 27 -102 0
103 -81 0
103 -102 0
81 102 -103 0
104 -101 0
104 103 0
101 -103 -104 0
-105 21 0
-105 -90 0
-21 90 105 0
5 30 -106 0
-5 -30 -106 0
5 -30 106 0
-5 30 106 0
-107 -105 0
-107 106 0
105 -106 107 0
-1 7 -108 0
1 -7 -108 0
-1 -7 108 0
1 7 108 0
-109 1 0
-109 -108 0
-1 108 109 0
-110 109 0
-110 14 0
-109 -14 110 0
-111 1 0
-111 110 0
-1 -110 111 0
-112 111 0
-112 -36 0
-111 36 112 0
69 5 -113 0
-69 -5 -113 0
69 -5 113 0
-69 5 113 0
112 113 -114 0
-112 -113 -114 0
112 -113 114 0
-112 113 114 0
115 -107 0
115 -114 0
107 114 -115 0
-116 104 0
-116 115 0
-104 -115 116 0
78 116 -117 0
-78 -116 -117 0
78 -116 117 0
-78 116 117 0
14 -111 58 15 69 -65 0
114 108 -38 67 0
-86 98 -88 0
85 58 71 0
-44 -80 0
88 -25 18 -98 7 0
-107 81 0
82 113 26 73 0
41 -33 0
100 37 0
-12 -32 -42 -82 -90 0
64 111 106 -66 -45 108 0
-107 80 -52 56 0
7 48 -114 0
-111 -84 0
-108 7 37 5 107 0
-103 -74 -46 0
76 -58 6 0
63 80 0
-75 59 0
-58 -103 83 61 89 47 0
101 88 -50 54 -23 -117 0
-7 25 0
-11 -78 0
-42 -9 61 -30 98 7 0
-23 -47 7 0
35 -104 9 -80 107 0
-74 102 44 50 106 -55 0
-77 -24 23 -40 -85 37 0
79 66 -63 0
84 -46 0
-11 84 70 0
114 -48 88 -36 117 0
100 27 0
-97 79 -73 -50 -26 0
5 53 -72 22 0
75 49 -31 -99 0
75 -46 115 0
-23 107 4 51 53 0
61 19 -49 39 50 0
78 -16 19 0
112 57 -59 -42 88 0
13 14 17 19 95 0
-75 -42 27 0
-30 60 88 -99 -57 -113 0
-23 -13 110 35 0
-115 -79 9 66 48 0
65 -11 -96 62 -27 0
-19 -13 0
58 11 -74 0
-8 -95 -54 100 49 0
-51 88 -16 -61 -49 102 0
117 0
